Please solve the following SAT Problem encoded in DIMACS format, only return a single solution assignment without explanations, if there is any: 
p cnf 10 75
9 8 1 0
6 8 -5 0
-5 2 -4 0
-5 10 6 0
3 6 -5 0
-7 2 8 0
4 1 10 0
2 -1 6 0
-7 -5 4 0
8 -7 6 0
-7 1 8 0
9 1 2 0
-2 10 -7 0
9 -4 -2 0
3 9 6 0
10 -9 -5 0
1 2 8 0
3 1 9 0
9 1 -8 0
-1 6 10 0
-4 -7 -10 0
7 -4 9 0
10 9 5 0
-9 -4 1 0
3 6 -7 0
8 9 2 0
9 8 3 0
-5 2 -7 0
1 -10 -5 0
9 5 10 0
3 1 9 0
-5 3 -2 0
-6 3 2 0
3 9 10 0
2 9 1 0
10 -7 -8 0
-5 -7 10 0
6 4 10 0
3 10 -7 0
4 3 1 0
-5 2 1 0
1 2 -7 0
10 1 2 0
-4 3 1 0
6 10 -8 0
-1 -7 2 0
-7 1 -5 0
-5 1 10 0
8 -3 10 0
10 9 3 0
2 6 10 0
1 8 6 0
-5 6 -4 0
-1 -4 8 0
1 -7 -4 0
3 -7 -10 0
10 -4 2 0
-5 7 2 0
6 -1 -2 0
-5 -2 6 0
9 -5 -7 0
2 10 8 0
7 3 10 0
10 9 2 0
-5 10 -7 0
9 -5 10 0
10 -7 6 0
1 2 9 0
-9 2 -7 0
-5 10 -4 0
-7 -3 -9 0
-7 9 10 0
3 -5 -10 0
8 10 -7 0
3 1 9 0

